words_hard_train/5363.qaiger
aag 96 16 0 1 80
2
4
12
14
18
22
26
30
34
42
48
56
72
88
104
122
192
6 2 4
8 3 5
10 7 9
16 13 15
20 16 19
24 20 23
28 24 27
32 28 31
36 33 34
38 32 35
40 37 39
44 40 42
46 10 44
50 48 12
52 12 14
54 53 17
58 55 57
60 54 56
62 59 61
64 50 62
66 65 61
68 17 18
70 69 21
74 71 73
76 70 72
78 75 77
80 67 78
82 81 77
84 21 22
86 85 25
90 87 89
92 86 88
94 91 93
96 83 94
98 97 93
100 25 26
102 101 29
106 103 105
108 102 104
110 107 109
112 98 111
114 99 110
116 115 109
118 29 30
120 119 33
124 121 123
126 120 122
128 125 127
130 116 129
132 113 131
134 117 128
136 135 115
138 132 136
140 135 127
142 41 43
144 143 45
146 140 145
148 138 147
150 47 148
152 10 39
154 11 38
156 153 155
158 156 45
160 150 159
162 141 144
164 157 162
166 161 165
168 158 163
170 169 47
172 51 63
174 173 65
176 66 79
178 177 81
180 175 179
182 82 95
184 183 97
186 180 185
188 187 148
190 171 189
192 166 191
i0 2 y2[7]
i1 1 x2[7]
i2 1 x2[0]
i3 1 x2[1]
i4 1 x2[2]
i5 1 x2[3]
i6 1 x2[4]
i7 1 x2[5]
i8 1 x2[6]
i9 2 y2[6]
i10 2 y2[0]
i11 2 y2[1]
i12 2 y2[2]
i13 2 y2[3]
i14 2 y2[4]
i15 2 y2[5]
o0 bv[0]
c
simplified
  >
    add
      << 4
        1
      subtract
        2 y2
        1 x2
    1
