words_hard_train/5363.qaiger.qdimacs
p cnf 96 241
a 2 6 7 9 11 13 15 17 0
e 1 3 4 5 8 10 12 14 16 18 19 20 21 22 23 24 25 26 27 28 29 30 31 32 33 34 35 36 37 38 39 40 41 42 43 44 45 46 47 48 49 50 51 52 53 54 55 56 57 58 59 60 61 62 63 64 65 66 67 68 69 70 71 72 73 74 75 76 77 78 79 80 81 82 83 84 85 86 87 88 89 90 91 92 93 94 95 96 0
-1 -2 3 0
1 -3 0
2 -3 0
1 2 4 0
-1 -4 0
-2 -4 0
3 4 5 0
-3 -5 0
-4 -5 0
6 7 8 0
-6 -8 0
-7 -8 0
-8 9 10 0
8 -10 0
-9 -10 0
-10 11 12 0
10 -12 0
-11 -12 0
-12 13 14 0
12 -14 0
-13 -14 0
-14 15 16 0
14 -16 0
-15 -16 0
16 -17 18 0
-16 -18 0
17 -18 0
-16 17 19 0
16 -19 0
-17 -19 0
18 19 20 0
-18 -20 0
-19 -20 0
-20 -21 22 0
20 -22 0
21 -22 0
-5 -22 23 0
5 -23 0
22 -23 0
-24 -6 25 0
24 -25 0
6 -25 0
-6 -7 26 0
6 -26 0
7 -26 0
26 8 27 0
-26 -27 0
-8 -27 0
27 28 29 0
-27 -29 0
-28 -29 0
-27 -28 30 0
27 -30 0
28 -30 0
29 30 31 0
-29 -31 0
-30 -31 0
-25 -31 32 0
25 -32 0
31 -32 0
32 30 33 0
-32 -33 0
-30 -33 0
8 -9 34 0
-8 -34 0
9 -34 0
34 10 35 0
-34 -35 0
-10 -35 0
35 36 37 0
-35 -37 0
-36 -37 0
-35 -36 38 0
35 -38 0
36 -38 0
37 38 39 0
-37 -39 0
-38 -39 0
33 -39 40 0
-33 -40 0
39 -40 0
40 38 41 0
-40 -41 0
-38 -41 0
10 -11 42 0
-10 -42 0
11 -42 0
42 12 43 0
-42 -43 0
-12 -43 0
43 44 45 0
-43 -45 0
-44 -45 0
-43 -44 46 0
43 -46 0
44 -46 0
45 46 47 0
-45 -47 0
-46 -47 0
41 -47 48 0
-41 -48 0
47 -48 0
48 46 49 0
-48 -49 0
-46 -49 0
12 -13 50 0
-12 -50 0
13 -50 0
50 14 51 0
-50 -51 0
-14 -51 0
51 52 53 0
-51 -53 0
-52 -53 0
-51 -52 54 0
51 -54 0
52 -54 0
53 54 55 0
-53 -55 0
-54 -55 0
-49 55 56 0
49 -56 0
-55 -56 0
49 -55 57 0
-49 -57 0
55 -57 0
57 54 58 0
-57 -58 0
-54 -58 0
14 -15 59 0
-14 -59 0
15 -59 0
59 16 60 0
-59 -60 0
-16 -60 0
60 61 62 0
-60 -62 0
-61 -62 0
-60 -61 63 0
60 -63 0
61 -63 0
62 63 64 0
-62 -64 0
-63 -64 0
-58 64 65 0
58 -65 0
-64 -65 0
56 65 66 0
-56 -66 0
-65 -66 0
58 -64 67 0
-58 -67 0
64 -67 0
67 57 68 0
-67 -68 0
-57 -68 0
-66 -68 69 0
66 -69 0
68 -69 0
67 63 70 0
-67 -70 0
-63 -70 0
20 21 71 0
-20 -71 0
-21 -71 0
71 22 72 0
-71 -72 0
-22 -72 0
-70 72 73 0
70 -73 0
-72 -73 0
-69 73 74 0
69 -74 0
-73 -74 0
23 -74 75 0
-23 -75 0
74 -75 0
-5 19 76 0
5 -76 0
-19 -76 0
5 -19 77 0
-5 -77 0
19 -77 0
76 77 78 0
-76 -78 0
-77 -78 0
-78 22 79 0
78 -79 0
-22 -79 0
-75 79 80 0
75 -80 0
-79 -80 0
70 -72 81 0
-70 -81 0
72 -81 0
78 -81 82 0
-78 -82 0
81 -82 0
80 82 83 0
-80 -83 0
-82 -83 0
-79 81 84 0
79 -84 0
-81 -84 0
84 23 85 0
-84 -85 0
-23 -85 0
25 31 86 0
-25 -86 0
-31 -86 0
86 32 87 0
-86 -87 0
-32 -87 0
-33 39 88 0
33 -88 0
-39 -88 0
88 40 89 0
-88 -89 0
-40 -89 0
87 89 90 0
-87 -90 0
-89 -90 0
-41 47 91 0
41 -91 0
-47 -91 0
91 48 92 0
-91 -92 0
-48 -92 0
-90 92 93 0
90 -93 0
-92 -93 0
93 -74 94 0
-93 -94 0
74 -94 0
85 94 95 0
-85 -95 0
-94 -95 0
-83 95 96 0
83 -96 0
-95 -96 0
96 0
